 200 34 
 2 23 25 18 60 38 61 49 50 72 75 21 
 77 58 17 33 34 29 56 44 66 86 45 42 
 15 13 38 64 40 53 31 45 33 66 
 12 
 1 3 5 7 8 10 12 18 19 20 28 29 
 14 
 1 5 7 9 11 12 17 19 21 25 27 30 
 32 33 
 9 
 3 4 7 8 9 14 17 21 30 
 28 
 1 2 3 4 6 7 8 9 12 13 14 15 
 16 17 19 20 21 22 23 24 25 26 27 29 
 30 31 32 33 
 24 
 1 2 3 4 5 6 7 8 11 17 18 19 
 20 23 24 25 26 27 28 30 31 32 33 34 
 28 
 1 2 3 4 5 6 8 9 10 11 12 13 
 14 16 18 19 20 21 22 24 25 27 28 30 
 31 32 33 34 
 13 
 3 4 7 8 15 17 18 23 24 27 32 33 
 34 
 29 
 1 2 3 4 5 7 8 9 10 11 12 13 
 15 16 17 18 19 20 22 24 26 27 28 29 
 30 31 32 33 34 
 10 
 2 7 11 14 20 23 25 26 32 34 
 33 
 1 2 3 4 5 6 7 8 9 10 11 12 
 13 14 15 16 17 19 20 21 22 23 24 25 
 26 27 28 29 30 31 32 33 34 
 7 
 1 11 16 17 21 23 30 
 26 
 1 3 4 5 6 7 8 9 10 11 12 13 
 15 16 17 19 21 24 26 28 29 30 31 32 
 33 34 
 8 
 3 4 6 9 16 25 28 33 
 16 
 3 6 7 10 11 14 17 22 25 26 27 28 
 30 31 32 34 
 19 
 1 3 4 6 7 8 9 10 12 13 15 18 
 21 27 29 30 31 32 33 
 10 
 1 3 8 13 16 18 19 22 28 34 
 18 
 5 7 8 9 10 11 16 18 19 21 22 23 
 24 25 28 31 32 33 
 25 
 4 5 6 7 9 11 13 14 15 17 18 19 
 20 22 24 25 26 27 28 29 30 31 32 33 
 34 
 18 
 2 4 5 6 7 9 10 12 17 19 20 25 
 26 27 29 30 32 33 
 11 
 1 5 8 11 19 23 26 31 32 33 34 
 22 
 1 2 3 4 7 8 13 14 16 17 18 20 
 21 22 23 25 26 27 28 29 30 33 
 22 
 1 4 5 7 9 12 14 15 16 17 18 19 
 20 21 22 26 27 28 29 30 32 33 
 23 
 1 2 4 5 6 9 10 11 12 13 14 17 
 20 21 23 25 27 28 29 30 31 33 34 
 25 
 3 4 6 7 9 10 12 14 15 17 19 20 
 21 23 24 25 26 27 28 29 30 31 32 33 
 34 
 4 
 14 16 17 21 
 15 
 5 6 8 9 17 18 20 21 22 24 25 26 
 30 33 34 
 2 
 13 22 
 18 
 1 2 3 5 6 7 10 14 15 18 19 21 
 22 23 29 30 31 33 
 12 
 3 8 10 12 17 19 26 29 31 32 33 34 
 6 
 8 9 19 22 24 34 
 24 
 2 3 4 5 6 7 9 11 13 14 17 18 
 19 20 22 23 24 25 26 28 31 32 33 34 
 12 
 2 3 7 9 10 13 14 19 21 23 27 29 
 21 
 3 4 7 8 9 10 11 13 16 17 19 20 
 22 23 24 25 26 28 30 32 34 
 9 
 1 5 8 10 11 18 20 26 33 
 25 
 1 4 5 6 7 10 11 12 13 15 16 17 
 18 22 23 24 25 26 27 28 29 30 31 32 
 34 
 24 
 1 2 3 4 7 9 12 13 14 15 16 17 
 19 21 23 24 25 26 27 28 29 30 32 33 
 24 
 2 3 5 6 7 8 9 10 12 13 14 15 
 16 17 19 20 21 22 23 26 29 31 33 34 
 8 
 4 8 9 10 19 24 31 32 
 16 
 1 5 15 16 17 21 23 24 25 26 27 28 
 29 32 33 34 
 19 
 5 6 9 12 14 15 17 18 20 21 23 24 
 25 26 27 29 31 32 33 
 12 
 3 7 11 14 18 20 22 23 24 28 30 31 
 17 
 1 4 9 11 13 15 16 18 19 20 22 24 
 25 26 27 32 34 
 14 
 4 7 10 11 12 14 18 19 21 23 29 30 
 31 33 
 24 
 1 2 6 7 8 9 10 14 15 16 17 18 
 19 20 21 22 23 24 26 27 29 30 31 32 
 11 
 2 5 7 9 10 18 23 26 27 29 33 
 19 
 2 3 4 5 8 9 11 12 14 15 16 17 
 21 23 24 26 29 31 32 
 21 
 1 3 5 6 7 9 10 11 14 15 16 17 
 18 19 20 21 23 26 27 30 33 
 5 
 12 21 26 27 29 
 22 
 1 4 8 9 10 12 13 15 16 18 20 23 
 24 25 26 27 28 30 31 32 33 34 
 30 
 1 4 5 6 8 9 10 11 12 13 14 15 
 17 18 19 20 21 22 23 24 25 26 27 28 
 29 30 31 32 33 34 
 5 
 1 4 22 23 33 
 22 
 1 2 3 8 9 10 11 12 15 16 18 19 
 20 21 23 24 25 28 29 30 31 33 
 3 
 8 19 34 
 23 
 1 2 3 4 6 8 9 10 12 14 16 19 
 20 21 22 23 24 25 26 27 29 30 31 
 20 
 1 2 4 5 7 8 9 13 14 15 18 19 
 22 23 25 26 27 30 33 34 
 20 
 1 2 3 5 6 8 10 13 14 15 18 22 
 25 26 27 29 30 31 32 34 
 14 
 4 6 10 13 14 16 18 20 22 26 28 30 
 32 33 
 30 
 1 2 3 4 5 6 7 8 10 11 12 13 
 14 15 17 18 20 21 22 23 24 26 27 28 
 29 30 31 32 33 34 
 30 
 1 2 3 4 5 6 9 10 12 13 14 15 
 17 18 19 20 21 22 23 24 25 26 27 28 
 29 30 31 32 33 34 
 16 
 4 5 6 7 9 11 15 20 21 23 24 25 
 28 29 30 31 
 32 
 1 2 3 4 5 6 7 8 9 10 12 13 
 14 15 16 17 18 19 20 21 22 23 24 25 
 26 27 28 29 30 31 33 34 
 16 
 1 3 4 7 9 12 13 14 15 16 17 18 
 19 21 23 32 
 17 
 1 3 5 6 10 12 17 20 21 23 24 25 
 26 27 28 29 32 
 25 
 1 2 3 5 6 7 8 9 11 14 16 18 
 21 22 23 24 25 26 28 29 30 31 32 33 
 34 
 34 
 1 2 3 4 5 6 7 8 9 10 11 12 
 13 14 15 16 17 18 19 20 21 22 23 24 
 25 26 27 28 29 30 31 32 33 34 
 14 
 2 3 7 8 11 13 14 17 20 21 28 30 
 32 33 
 17 
 1 2 4 7 8 9 11 13 16 17 18 19 
 22 26 28 29 30 
 12 
 1 4 8 10 11 13 16 20 23 26 28 32 
 15 
 6 7 8 11 16 17 18 20 21 23 25 27 
 28 29 32 
 10 
 2 4 10 13 14 19 21 25 26 30 
 18 
 1 4 6 8 9 11 14 16 17 19 21 24 
 25 26 27 29 33 34 
 27 
 2 3 6 7 8 9 10 11 13 14 15 16 
 18 20 21 22 23 24 25 26 27 28 29 30 
 31 33 34 
 26 
 1 2 3 4 5 6 7 8 9 10 11 13 
 14 16 17 18 20 21 23 25 26 27 28 29 
 30 33 
 34 
 1 2 3 4 5 6 7 8 9 10 11 12 
 13 14 15 16 17 18 19 20 21 22 23 24 
 25 26 27 28 29 30 31 32 33 34 
 32 
 1 2 3 4 5 6 7 8 9 10 11 12 
 13 14 15 16 17 18 20 21 22 23 25 26 
 27 28 29 30 31 32 33 34 
 31 
 1 2 3 4 5 6 7 8 9 10 11 12 
 13 14 15 16 17 18 19 20 21 22 23 24 
 25 26 27 28 29 30 33 
 28 
 1 2 3 4 5 7 8 9 11 12 13 14 
 15 16 17 18 19 20 21 22 23 24 25 30 
 31 32 33 34 
 5 
 1 13 17 18 26 
 18 
 2 3 4 8 9 11 12 14 15 16 19 20 
 21 23 25 28 31 34 
 13 
 3 5 7 11 17 19 21 23 25 26 28 30 
 32 
 3 
 23 25 34 
 12 
 1 6 10 12 13 16 17 21 23 25 28 33 
 25 
 2 4 5 6 8 9 10 11 12 13 14 15 
 16 17 18 19 20 21 25 28 29 31 32 33 
 34 
 3 
 9 18 21 
 33 
 1 2 3 4 5 6 7 8 9 10 11 12 
 13 14 15 16 17 18 19 20 21 23 24 25 
 26 27 28 29 30 31 32 33 34 
 11 
 1 12 17 19 22 24 26 28 29 30 32 
 14 
 4 7 10 12 13 15 16 19 21 24 26 27 
 32 34 
 8 
 2 10 12 15 19 21 30 31 
 25 
 2 3 5 7 9 10 12 14 15 16 17 18 
 19 20 21 22 23 24 25 26 27 28 31 33 
 34 
 31 
 1 2 3 4 6 7 8 9 10 11 12 13 
 14 15 16 17 19 20 21 22 23 24 25 26 
 27 28 29 30 31 32 33 
 19 
 1 2 3 4 6 7 8 9 11 12 13 16 
 21 24 25 26 28 31 33 
 13 
 1 4 5 6 7 14 15 20 23 24 28 29 
 33 
 9 
 3 4 7 8 11 12 13 17 28 
 33 
 1 2 3 4 5 6 7 8 9 10 12 13 
 14 15 16 17 18 19 20 21 22 23 24 25 
 26 27 28 29 30 31 32 33 34 
 13 
 2 7 9 14 15 16 19 20 22 26 27 29 
 30 
 23 
 1 3 5 6 8 9 11 13 14 16 17 18 
 19 22 23 24 25 27 28 30 31 32 34 
 2 
 1 30 
 18 
 3 5 7 8 9 13 16 17 18 20 22 24 
 25 26 27 28 29 30 
 12 
 6 10 11 15 19 21 22 23 28 29 32 33 
 25 
 1 2 3 4 5 6 7 9 10 11 12 13 
 14 16 19 21 23 25 26 28 30 31 32 33 
 34 
 14 
 2 3 7 13 14 16 20 24 26 29 30 31 
 33 34 
 18 
 1 4 6 7 8 11 13 14 16 17 21 22 
 24 26 28 29 30 32 
 28 
 1 2 3 4 5 6 7 8 10 11 12 13 
 14 15 16 17 18 19 21 23 24 25 26 28 
 29 31 33 34 
 19 
 2 3 4 8 9 10 11 12 14 15 16 17 
 18 21 22 23 24 30 31 
 26 
 1 2 3 4 6 10 11 12 13 14 15 16 
 17 19 20 21 22 24 26 28 29 30 31 32 
 33 34 
 15 
 5 8 9 12 15 16 17 21 22 25 28 29 
 30 32 33 
 28 
 1 2 3 4 5 6 7 9 10 12 13 14 
 15 17 18 19 21 22 23 24 25 27 28 29 
 30 31 32 34 
 29 
 2 3 4 5 6 7 9 10 11 12 13 14 
 17 18 19 20 21 22 23 24 25 26 28 29 
 30 31 32 33 34 
 10 
 4 6 10 11 13 15 18 19 24 32 
 8 
 3 4 12 19 22 24 27 34 
 14 
 3 4 10 14 16 17 20 21 22 27 29 30 
 32 33 
 6 
 1 4 7 26 30 34 
 26 
 1 3 4 5 6 7 8 9 11 12 13 14 
 15 16 17 18 19 20 21 24 25 27 28 29 
 31 34 
 20 
 2 5 6 7 8 9 10 11 14 15 18 19 
 22 23 25 27 31 32 33 34 
 3 
 12 17 30 
 25 
 1 2 5 6 7 8 10 11 13 14 16 17 
 18 19 20 24 25 26 27 28 29 30 31 32 
 33 
 30 
 1 2 3 4 5 6 7 9 11 12 13 14 
 15 16 17 18 19 20 21 22 23 24 26 27 
 28 29 30 31 32 33 
 12 
 1 7 13 14 20 23 25 27 28 31 32 33 
 11 
 4 7 11 12 14 16 19 20 24 25 28 
 18 
 1 2 4 6 7 8 9 11 12 15 20 22 
 23 26 28 29 30 34 
 31 
 2 3 4 5 6 7 8 10 11 12 13 14 
 15 16 17 18 20 21 22 23 24 25 26 27 
 28 29 30 31 32 33 34 
 28 
 1 2 4 5 6 7 8 9 10 11 12 13 
 14 15 16 17 18 20 21 22 23 25 26 28 
 29 30 32 33 
 21 
 2 4 5 8 10 11 15 16 17 18 20 21 
 22 23 24 25 26 28 29 31 32 
 11 
 11 12 13 16 17 18 21 22 23 25 29 
 22 
 1 2 6 7 8 10 11 13 14 15 16 17 
 18 19 21 22 25 26 27 28 31 32 
 28 
 1 3 5 6 7 8 9 10 11 12 13 14 
 15 16 17 18 21 23 24 25 26 27 28 29 
 31 32 33 34 
 16 
 1 2 4 9 11 12 13 18 19 20 21 23 
 25 27 29 32 
 2 
 5 31 
 21 
 1 3 5 8 10 11 13 14 15 16 17 19 
 20 21 23 25 26 27 31 32 33 
 15 
 1 2 3 5 6 7 13 18 21 22 23 28 
 31 33 34 
 18 
 1 5 7 9 12 13 16 17 19 20 21 23 
 26 28 30 31 32 33 
 26 
 4 5 6 8 9 13 14 15 16 17 19 20 
 21 22 23 24 25 26 27 28 29 30 31 32 
 33 34 
 21 
 2 3 4 5 7 8 10 11 12 14 16 17 
 18 21 25 26 28 30 31 33 34 
 31 
 1 2 4 5 6 7 8 9 10 11 12 14 
 15 17 18 19 20 21 22 23 24 25 26 27 
 28 29 30 31 32 33 34 
 19 
 1 4 5 6 7 9 10 12 16 19 20 21 
 22 23 25 27 28 31 34 
 15 
 1 4 5 10 11 12 17 18 21 22 28 29 
 30 31 33 
 19 
 1 2 3 4 5 6 7 9 10 11 12 14 
 15 19 26 27 29 32 33 
 26 
 1 2 3 4 5 7 8 9 11 12 13 14 
 16 17 18 19 20 23 24 25 26 28 30 32 
 33 34 
 29 
 1 2 3 4 5 7 8 9 10 11 12 13 
 14 16 18 19 20 21 23 24 25 26 27 29 
 30 31 32 33 34 
 17 
 1 2 4 8 11 14 17 19 20 21 24 25 
 26 27 29 31 34 
 3 
 3 5 10 
 4 
 7 16 32 33 
 29 
 1 2 3 4 5 7 8 9 10 11 12 13 
 14 15 16 17 19 20 22 23 24 25 27 28 
 29 31 32 33 34 
 5 
 6 11 16 17 34 
 30 
 1 2 3 4 5 6 7 8 9 10 11 12 
 13 14 15 16 17 18 19 20 21 24 25 26 
 27 28 29 31 32 34 
 33 
 1 2 3 4 5 6 7 8 9 10 11 12 
 13 14 15 16 17 19 20 21 22 23 24 25 
 26 27 28 29 30 31 32 33 34 
 27 
 1 3 4 5 6 7 9 11 12 13 14 15 
 16 17 18 20 21 22 23 24 25 26 27 29 
 31 32 34 
 30 
 1 2 3 4 6 7 8 9 10 11 12 13 
 14 15 16 17 18 20 21 22 23 24 25 26 
 27 28 30 32 33 34 
 27 
 1 2 4 5 6 7 8 9 10 11 12 13 
 14 15 16 17 18 20 22 26 27 28 30 31 
 32 33 34 
 10 
 5 8 10 12 14 16 19 30 31 32 
 13 
 5 8 12 13 16 17 19 22 26 27 29 30 
 34 
 19 
 1 5 7 8 11 13 14 15 19 21 24 27 
 28 29 30 31 32 33 34 
 16 
 4 5 6 7 8 13 14 15 17 18 20 21 
 26 27 31 32 
 32 
 1 3 4 5 6 7 8 9 10 11 12 13 
 14 15 16 17 18 19 20 21 22 23 24 25 
 26 27 28 30 31 32 33 34 
 25 
 1 2 4 5 7 8 9 10 11 13 14 15 
 16 17 19 20 21 22 23 24 28 29 31 32 
 33 
 33 
 1 2 3 4 5 6 7 8 9 10 11 12 
 13 14 15 16 17 18 19 20 22 23 24 25 
 26 27 28 29 30 31 32 33 34 
 16 
 5 6 13 16 18 19 20 22 23 24 25 26 
 29 30 32 34 
 13 
 4 6 11 13 16 18 20 23 25 26 29 30 
 32 
 15 
 1 4 5 6 11 12 15 16 24 26 28 29 
 30 32 34 
 3 
 14 21 26 
 31 
 1 2 4 5 6 7 10 11 12 13 14 15 
 16 17 18 19 20 21 22 23 24 25 26 27 
 28 29 30 31 32 33 34 
 2 
 15 28 
 34 
 1 2 3 4 5 6 7 8 9 10 11 12 
 13 14 15 16 17 18 19 20 21 22 23 24 
 25 26 27 28 29 30 31 32 33 34 
 9 
 4 5 7 12 21 23 25 30 32 
 28 
 1 2 4 5 6 7 8 9 10 12 13 14 
 15 16 17 18 21 22 23 25 26 27 28 29 
 31 32 33 34 
 7 
 3 11 12 20 23 25 29 
 9 
 5 6 9 15 22 25 26 32 33 
 16 
 2 4 6 11 13 16 17 18 20 23 24 25 
 26 29 30 34 
 8 
 5 11 13 21 25 26 27 31 
 21 
 4 5 7 8 10 12 15 16 17 18 19 21 
 23 24 27 28 29 30 31 32 34 
 10 
 2 6 10 12 20 22 24 28 30 34 
 23 
 1 3 4 6 9 10 11 12 13 15 16 17 
 19 21 22 23 24 25 26 29 32 33 34 
 7 
 7 10 13 23 27 31 32 
 18 
 1 5 6 7 9 12 13 14 16 17 21 24 
 25 27 28 30 32 33 
 4 
 17 21 30 33 
 29 
 1 2 3 4 5 7 8 9 10 12 13 15 
 16 17 18 19 20 21 22 23 24 25 26 27 
 29 30 31 32 34 
 33 
 1 2 3 4 5 6 7 8 9 10 12 13 
 14 15 16 17 18 19 20 21 22 23 24 25 
 26 27 28 29 30 31 32 33 34 
 6 
 2 8 9 11 15 22 
 16 
 1 4 5 7 9 10 11 13 17 19 20 22 
 25 28 31 32 
 8 
 10 11 12 15 21 25 32 33 
 24 
 1 2 3 4 5 6 7 9 10 14 15 19 
 20 21 22 25 26 27 28 30 31 32 33 34 
 18 
 2 3 5 8 9 11 14 15 16 22 23 24 
 26 28 29 30 31 34 
 34 
 1 2 3 4 5 6 7 8 9 10 11 12 
 13 14 15 16 17 18 19 20 21 22 23 24 
 25 26 27 28 29 30 31 32 33 34 
 18 
 1 3 4 7 9 10 11 13 14 16 17 18 
 20 21 22 27 29 34 
 4 
 6 8 21 34 
 30 
 1 2 4 5 7 8 9 10 11 12 13 14 
 15 16 17 18 19 20 21 22 23 24 25 26 
 27 29 30 31 32 34 
 15 
 1 3 6 7 8 9 11 14 19 20 22 28 
 29 32 33 
 15 
 2 3 5 7 8 14 15 18 20 21 24 26 
 27 32 33 
 34 
 1 2 3 4 5 6 7 8 9 10 11 12 
 13 14 15 16 17 18 19 20 21 22 23 24 
 25 26 27 28 29 30 31 32 33 34 
 5 
 9 14 17 30 31 
 28 
 1 3 4 6 7 9 11 12 13 15 16 17 
 18 19 20 21 22 23 24 25 26 27 28 29 
 30 31 32 34 
 30 
 1 2 3 5 6 7 8 9 10 11 12 13 
 14 15 16 17 18 19 20 22 23 24 26 27 
 29 30 31 32 33 34 
 8 
 6 7 8 14 17 20 26 31 
 16 
 1 2 4 9 12 13 15 16 17 18 20 22 
 23 26 28 31 
 7 
 14 15 17 18 22 23 32 
 3 
 1 2 31 
 8 
 1 11 12 15 17 19 27 29 
 34 
 1 2 3 4 5 6 7 8 9 10 11 12 
 13 14 15 16 17 18 19 20 21 22 23 24 
 25 26 27 28 29 30 31 32 33 34 
 13 
 2 4 6 8 14 19 20 21 22 28 30 31 
 34 
 14 
 2 6 13 18 19 21 22 23 24 26 28 31 
 33 34 
 